NAME: random_points
TYPE: TSP
DIMENSION: 18
EDGE_WEIGHT_TYPE: EUC_2D
NODE_COORD_SECTION
1 85 743
2 811 755
3 548 101
4 217 324
5 846 264
6 888 698
7 737 58
8 692 580
9 684 791
10 913 887
11 738 62
12 721 73
13 142 441
14 877 18
15 274 360
16 811 763
17 212 479
18 82 25
EOF
